p cnf 52 52
λ_asia_no λ_asia_yes 0
λ_asia_no ρ_asia_yes| 0
λ_bronc_no λ_bronc_yes 0
λ_dysp_no λ_dysp_yes 0
λ_either_no λ_either_yes 0
λ_lung_no λ_lung_yes 0
λ_smoke_no λ_smoke_yes 0
λ_smoke_no ρ_smoke_yes| 0
λ_tub_no λ_tub_yes 0
λ_xray_no λ_xray_yes 0
λ_asia_yes ~ρ_asia_yes| 0
λ_smoke_yes ~ρ_smoke_yes| 0
~λ_asia_no ~λ_asia_yes 0
~λ_bronc_no ~λ_bronc_yes 0
~λ_dysp_no ~λ_dysp_yes 0
~λ_either_no ~λ_either_yes 0
~λ_lung_no ~λ_lung_yes 0
~λ_smoke_no ~λ_smoke_yes 0
~λ_tub_no ~λ_tub_yes 0
~λ_xray_no ~λ_xray_yes 0
λ_bronc_no ρ_bronc_yes|smoke_no ~λ_smoke_no 0
λ_bronc_no ρ_bronc_yes|smoke_yes ~λ_smoke_yes 0
λ_lung_no ρ_lung_yes|smoke_no ~λ_smoke_no 0
λ_lung_no ρ_lung_yes|smoke_yes ~λ_smoke_yes 0
λ_tub_no ρ_tub_yes|asia_no ~λ_asia_no 0
λ_tub_no ρ_tub_yes|asia_yes ~λ_asia_yes 0
λ_xray_no ρ_xray_yes|either_no ~λ_either_no 0
λ_xray_no ρ_xray_yes|either_yes ~λ_either_yes 0
λ_bronc_yes ~λ_smoke_no ~ρ_bronc_yes|smoke_no 0
λ_bronc_yes ~λ_smoke_yes ~ρ_bronc_yes|smoke_yes 0
λ_lung_yes ~λ_smoke_no ~ρ_lung_yes|smoke_no 0
λ_lung_yes ~λ_smoke_yes ~ρ_lung_yes|smoke_yes 0
λ_tub_yes ~λ_asia_no ~ρ_tub_yes|asia_no 0
λ_tub_yes ~λ_asia_yes ~ρ_tub_yes|asia_yes 0
λ_xray_yes ~λ_either_no ~ρ_xray_yes|either_no 0
λ_xray_yes ~λ_either_yes ~ρ_xray_yes|either_yes 0
λ_dysp_no ρ_dysp_yes|either_no;bronc_no ~λ_bronc_no ~λ_either_no 0
λ_dysp_no ρ_dysp_yes|either_no;bronc_yes ~λ_bronc_yes ~λ_either_no 0
λ_dysp_no ρ_dysp_yes|either_yes;bronc_no ~λ_bronc_no ~λ_either_yes 0
λ_dysp_no ρ_dysp_yes|either_yes;bronc_yes ~λ_bronc_yes ~λ_either_yes 0
λ_either_no ρ_either_yes|tub_no;lung_no ~λ_lung_no ~λ_tub_no 0
λ_either_no ρ_either_yes|tub_no;lung_yes ~λ_lung_yes ~λ_tub_no 0
λ_either_no ρ_either_yes|tub_yes;lung_no ~λ_lung_no ~λ_tub_yes 0
λ_either_no ρ_either_yes|tub_yes;lung_yes ~λ_lung_yes ~λ_tub_yes 0
λ_dysp_yes ~λ_bronc_no ~λ_either_no ~ρ_dysp_yes|either_no;bronc_no 0
λ_dysp_yes ~λ_bronc_no ~λ_either_yes ~ρ_dysp_yes|either_yes;bronc_no 0
λ_dysp_yes ~λ_bronc_yes ~λ_either_no ~ρ_dysp_yes|either_no;bronc_yes 0
λ_dysp_yes ~λ_bronc_yes ~λ_either_yes ~ρ_dysp_yes|either_yes;bronc_yes 0
λ_either_yes ~λ_lung_no ~λ_tub_no ~ρ_either_yes|tub_no;lung_no 0
λ_either_yes ~λ_lung_no ~λ_tub_yes ~ρ_either_yes|tub_yes;lung_no 0
λ_either_yes ~λ_lung_yes ~λ_tub_no ~ρ_either_yes|tub_no;lung_yes 0
λ_either_yes ~λ_lung_yes ~λ_tub_yes ~ρ_either_yes|tub_yes;lung_yes 0
